sym1.0                                  
   1.00000000000000     
    10.8133258876398610   -0.0001840231686485   -0.8382855523822479
    -0.0000769431955203    5.5459051327380333    0.0000201575728728
    -2.4392766685799727    0.0000427523126913    4.9593211402611326
   P    S    Li
     2     8     6
Direct
  0.9999979902100806  0.9506860771645862  0.5000014139948037
  0.4999979902666753  0.4506860777951500  0.5000014130843711
  0.1233357787150415  0.7360205181370979  0.4087278302873233
  0.8766642317170926  0.7360205259050095  0.5912721579743619
  0.6233357788380437  0.2360205181897062  0.4087278303080427
  0.3766642317736727  0.2360205247744580  0.5912721570639364
  0.8774618116226609  0.1655793646986108  0.1622749761965330
  0.1225381886612679  0.1655793653127653  0.8377250493906020
  0.3774618114996589  0.6655793646460021  0.1622749761758136
  0.6225381881133185  0.6655793646822008  0.8377250482009119
  0.9999966447229580  0.4511069697872004  0.9999843476865231
  0.4999966445999561  0.9511069697345919  0.9999843476658037
  0.2503841373658690  0.9506013985275598  0.2495949355548328
  0.7496158807895087  0.9506013872954219  0.7504050228988117
  0.7503841374888779  0.4506013985801683  0.2495949355755522
  0.2496158803445314  0.4506013879259573  0.7504050238803341
 
  0.00000000E+00  0.00000000E+00  0.00000000E+00
  0.00000000E+00  0.00000000E+00  0.00000000E+00
  0.00000000E+00  0.00000000E+00  0.00000000E+00
  0.00000000E+00  0.00000000E+00  0.00000000E+00
  0.00000000E+00  0.00000000E+00  0.00000000E+00
  0.00000000E+00  0.00000000E+00  0.00000000E+00
  0.00000000E+00  0.00000000E+00  0.00000000E+00
  0.00000000E+00  0.00000000E+00  0.00000000E+00
  0.00000000E+00  0.00000000E+00  0.00000000E+00
  0.00000000E+00  0.00000000E+00  0.00000000E+00
  0.00000000E+00  0.00000000E+00  0.00000000E+00
  0.00000000E+00  0.00000000E+00  0.00000000E+00
  0.00000000E+00  0.00000000E+00  0.00000000E+00
  0.00000000E+00  0.00000000E+00  0.00000000E+00
  0.00000000E+00  0.00000000E+00  0.00000000E+00
  0.00000000E+00  0.00000000E+00  0.00000000E+00
