sym1.0                                  
   1.00000000000000     
     6.6787838069959804   -0.0000346270528045   -3.5002545601546977
     0.0000210336691802    6.3670640020077922   -0.0002108109206639
    -3.8893308612970841   -0.0000890844831419    8.8182919770127732
   P    S    Li
     2     8     6
Direct
  0.5984457780075871  0.8188654727551481  0.1147910559440331
  0.5984458547744330  0.1811342972688521  0.6147910883500858
  0.7121810138364140  0.1190374773249175  0.2290319281528037
  0.7121814292824152  0.8809626501232830  0.7290322175435754
  0.9314195572469007  0.6697013743876074  0.2258922766678921
  0.9314198937208885  0.3302983760355376  0.7258925407617339
  0.2594184041257457  0.8094775068387479  0.7757521648517712
  0.2594181491244682  0.1905225191009697  0.2757519617348206
  0.4885219276791252  0.6700374694640092  0.2266524584521565
  0.4885220929015300  0.3299624452662994  0.7266526249948785
  0.3548842866125401  0.6827720288472675  0.6141150012673929
  0.3548843375387732  0.3172278572387440  0.1141150379356307
 -0.1582166608568125 -0.3159322338058286  0.6154577830508288
 -0.1582171210274466  0.3159326200538385  0.1154574516129748
  0.1108071913969536  0.1512894866899814  0.6271129346630611
  0.1108072655370494  0.8487106541456713  0.1271129894601984
 
  0.00000000E+00  0.00000000E+00  0.00000000E+00
  0.00000000E+00  0.00000000E+00  0.00000000E+00
  0.00000000E+00  0.00000000E+00  0.00000000E+00
  0.00000000E+00  0.00000000E+00  0.00000000E+00
  0.00000000E+00  0.00000000E+00  0.00000000E+00
  0.00000000E+00  0.00000000E+00  0.00000000E+00
  0.00000000E+00  0.00000000E+00  0.00000000E+00
  0.00000000E+00  0.00000000E+00  0.00000000E+00
  0.00000000E+00  0.00000000E+00  0.00000000E+00
  0.00000000E+00  0.00000000E+00  0.00000000E+00
  0.00000000E+00  0.00000000E+00  0.00000000E+00
  0.00000000E+00  0.00000000E+00  0.00000000E+00
  0.00000000E+00  0.00000000E+00  0.00000000E+00
  0.00000000E+00  0.00000000E+00  0.00000000E+00
  0.00000000E+00  0.00000000E+00  0.00000000E+00
  0.00000000E+00  0.00000000E+00  0.00000000E+00
